WARNING: for repeatability, setting FPU to use double precision
============================[ Problem Statistics ]=============================
|                                                                             |
|  Number of variables:        225530                                         |
|  Number of clauses:          529395                                         |
|  Parse time:                   0.30 s                                       |
|                                                                             |
============================[ Search Statistics ]==============================
| Conflicts |          ORIGINAL         |          LEARNT          | Progress |
|           |    Vars  Clauses Literals |    Limit  Clauses Lit/Cl |          |
===============================================================================
|       100 |  125646   508884  1142414 |   186590      100     10 | 44.289 % |
|       250 |  125646   508884  1142414 |   205249      250     19 | 44.289 % |
|       475 |  125638   508849  1142336 |   225774      474     53 | 44.292 % |
|       812 |  125638   508849  1142336 |   248352      811     48 | 44.292 % |
===============================================================================
restarts              : 7
conflicts             : 927            (760 /sec)
decisions             : 18166          (0.00 % random) (14889 /sec)
propagations          : 3340810        (2738198 /sec)
conflict literals     : 41063          (8.17 % deleted)
Memory used           : 58.00 MB
CPU time              : 1.22008 s

SATISFIABLE
